0 34 
1 35 
2 34 
3 32 
4 34 
5 32 
6 30 
7 28 
8 27 
9 25 
10 22 
11 20 
12 20 
13 20 
14 22 
15 22 
16 23 
17 23 
18 21 
19 19 
20 14 
21 15 
22 14 
23 14 
24 12 
25 9 
26 8 
27 6 
28 4 
29 4 
30 3 
31 4 
32 1 
33 2 
34 1 
35 0 
36 0 

